GLPSOL--GLPK LP/MIP Solver 5.0
Parameter(s) specified in the command line:
 --lp ../modeles/4_144.lp --log 4_144.log
Reading problem data from '../modeles/4_144.lp'...
593 rows, 1160 columns, 4044 non-zeros
576 integer variables, all of which are binary
1763 lines were read
GLPK Integer Optimizer 5.0
593 rows, 1160 columns, 4044 non-zeros
576 integer variables, all of which are binary
Preprocessing...
568 constraint coefficient(s) were reduced
593 rows, 1156 columns, 4040 non-zeros
576 integer variables, all of which are binary
Scaling...
 A: min|aij| =  7.716e-04  max|aij| =  4.000e+00  ratio =  5.184e+03
GM: min|aij| =  1.179e-01  max|aij| =  8.485e+00  ratio =  7.200e+01
EQ: min|aij| =  1.389e-02  max|aij| =  1.000e+00  ratio =  7.200e+01
2N: min|aij| =  1.235e-02  max|aij| =  1.714e+00  ratio =  1.388e+02
Constructing initial basis...
Size of triangular part is 593
Solving LP relaxation...
GLPK Simplex Optimizer 5.0
593 rows, 1156 columns, 4040 non-zeros
      0: obj =   8.000000000e+00 inf =   1.950e+01 (9)
     75: obj =   3.400559683e-01 inf =   0.000e+00 (0)
*   243: obj =  -2.000000000e+00 inf =   3.421e-15 (0)
OPTIMAL LP SOLUTION FOUND
Integer optimization begins...
Long-step dual simplex will be used
+   243: mip =     not found yet >=              -inf        (1; 0)
+   243: >>>>>  -2.000000000e+00 >=  -2.000000000e+00   0.0% (1; 0)
+   243: mip =  -2.000000000e+00 >=     tree is empty   0.0% (0; 1)
INTEGER OPTIMAL SOLUTION FOUND
Time used:   0.0 secs
Memory used: 1.6 Mb (1728158 bytes)
